<number of tasks>
50

<cycle time>
1000

<order strength>
0.602


<task times>
1 244
2 71
3 30
4 162
5 61
6 303
7 185
8 276
9 199
10 169
11 30
12 215
13 184
14 541
15 176
16 503
17 35
18 68
19 31
20 101
21 122
22 360
23 271
24 55
25 174
26 517
27 34
28 108
29 167
30 175
31 396
32 113
33 115
34 28
35 149
36 234
37 131
38 369
39 187
40 220
41 430
42 288
43 503
44 224
45 37
46 325
47 239
48 482
49 234
50 199

<precedence relations>
1,11
2,22
3,9
3,16
4,5
4,6
4,7
4,8
4,10
5,11
6,11
7,11
8,32
9,12
9,13
9,14
9,15
10,12
10,15
10,16
11,17
11,18
11,19
11,20
11,21
12,22
13,22
14,22
15,22
16,23
17,43
18,29
19,29
19,30
19,31
20,29
20,33
21,31
22,24
22,25
22,26
22,27
22,28
22,29
22,34
23,29
23,30
23,31
24,32
25,33
26,46
28,45
29,32
30,32
31,32
31,33
31,34
32,35
32,36
32,37
32,38
32,39
34,43
36,43
36,44
37,40
37,42
38,41
38,49
39,40
39,41
39,45
40,46
41,46
41,48
42,43
42,44
43,45
43,46
44,46
45,48
45,49
45,50
46,47

<end>
